NAME : LR1_6_1
TYPE : PDPTW
DIMENSION : 150
EDGE_WEIGHT_TYPE : EXACT_2D
NODE_COORD_SECTION
1 1 0
2 150 0
3 0 0
4 10 231
5 220 2
6 83 93
7 3 174
8 1043 10
9 166 123
10 10 0
11 293 -27
12 312 0
13 -20 624
14 0 7
15 680 690
16 8 247
17 838 10
18 152 29
19 10 347
20 216 25
21 0 359
22 -22 1021
23 0 12
24 602 612
25 13 148
26 17 10
27 291 148
28 10 0
29 241 3
30 0 470
31 -21 760
32 0 17
33 817 827
34 18 266
35 353 10
36 99 226
37 10 0
38 116 22
39 0 630
40 15 373
41 81 22
42 1096 1106
43 23 17
44 597 0
45 96 86
46 10 0
47 228 -21
48 267 0
49 -5 215
50 0 27
51 212 222
52 28 16
53 273 10
54 67 175
55 10 0
56 286 17
57 0 560
58 33 88
59 600 32
60 664 674
61 33 26
62 890 10
63 37 14
64 10 534
65 11 -22
66 295 0
67 -16 814
68 0 37
69 172 182
70 38 154
71 59 10
72 75 191
73 10 0
74 62 -27
75 471 0
76 17 456
77 620 42
78 357 367
79 43 99
80 270 10
81 6 168
82 10 393
83 211 22
84 0 252
85 -23 1056
86 0 47
87 703 713
88 48 268
89 863 10
90 29 8
91 10 0
92 89 -27
93 365 0
94 6 398
95 433 52
96 501 511
97 53 282
98 876 10
99 90 44
100 10 49
101 7 -41
102 301 0
103 -15 838
104 0 57
105 198 208
106 58 207
107 205 10
108 289 143
109 10 480
110 194 7
111 0 371
112 29 780
113 48 62
114 561 571
115 63 207
116 508 10
117 136 50
118 10 0
119 221 -11
120 264 0
121 -45 833
122 0 67
123 469 479
124 68 206
125 766 10
126 227 5
127 10 2
128 287 15
129 0 624
130 23 17
131 515 72
132 736 746
133 73 152
134 88 10
135 225 192
136 10 363
137 104 21
138 0 593
139 -12 799
140 0 77
141 275 285
142 78 106
143 232 10
144 73 81
145 10 215
146 232 -8
147 111 0
148 -15 563
149 0 82
150 494 504
PICKUP_AND_DELIVERY_SECTION
1 0 0 0 0 0 0
2 0 0 0 0 1206 0
3 0 0 0 0 0 71
4 0 0 0 0 10 10
5 0 0 0 0 80 80
6 0 0 0 0 0 0
7 0 0 0 0 -18 -18
8 0 0 0 0 0 0
9 0 0 0 0 31 31
10 0 0 0 0 5 5
11 0 0 0 0 558 558
12 0 0 0 0 140 140
13 0 0 0 0 10 10
14 0 0 0 0 203 203
15 0 0 0 0 487 487
16 0 0 0 0 -13 -13
17 0 0 0 0 0 0
18 0 0 0 0 909 909
19 0 0 0 0 10 0
20 0 0 0 0 228 228
21 0 0 0 0 107 107
22 0 0 0 0 10 10
23 0 0 0 0 270 270
24 0 0 0 0 453 453
25 0 0 0 0 24 24
26 0 0 0 0 592 0
27 0 0 0 0 646 646
28 0 0 0 0 15 15
29 0 0 0 0 787 787
30 0 0 0 0 162 162
31 0 0 0 0 10 10
32 0 0 0 0 254 254
33 0 0 0 0 0 0
34 0 0 0 0 11 11
35 0 0 0 0 156 0
36 0 0 0 0 338 338
37 0 0 0 0 20 20
38 0 0 0 0 250 250
39 0 0 0 0 110 110
40 0 0 0 0 10 10
41 0 0 0 0 107 107
42 0 0 0 0 248 248
43 0 0 0 0 11 0
44 0 0 0 0 625 0
45 0 0 0 0 83 83
46 0 0 0 0 25 25
47 0 0 0 0 377 377
48 0 0 0 0 100 100
49 0 0 0 0 10 10
50 0 0 0 0 277 277
51 0 0 0 0 579 579
52 0 0 0 0 17 17
53 0 0 0 0 513 0
54 0 0 0 0 286 286
55 0 0 0 0 30 30
56 0 0 0 0 422 422
57 0 0 0 0 176 176
58 0 0 0 0 10 10
59 0 0 0 0 14 14
60 0 0 0 0 561 561
61 0 0 0 0 -22 -22
62 0 0 0 0 0 0
63 0 0 0 0 253 253
64 0 0 0 0 35 0
65 0 0 0 0 500 500
66 0 0 0 0 74 74
67 0 0 0 0 10 10
68 0 0 0 0 53 53
69 0 0 0 0 0 0
70 0 0 0 0 21 21
71 0 0 0 0 139 0
72 0 0 0 0 90 90
73 0 0 0 0 40 40
74 0 0 0 0 825 825
75 0 0 0 0 209 209
76 0 0 0 0 0 0
77 0 0 0 0 149 149
78 0 0 0 0 0 0
79 0 0 0 0 4 4
80 0 0 0 0 276 0
81 0 0 0 0 754 754
82 0 0 0 0 45 0
83 0 0 0 0 216 216
84 0 0 0 0 254 254
85 0 0 0 0 10 10
86 0 0 0 0 175 175
87 0 0 0 0 551 551
88 0 0 0 0 -29 -29
89 0 0 0 0 0 0
90 0 0 0 0 761 761
91 0 0 0 0 50 50
92 0 0 0 0 846 846
93 0 0 0 0 9 9
94 0 0 0 0 10 10
95 0 0 0 0 294 294
96 0 0 0 0 0 0
97 0 0 0 0 26 26
98 0 0 0 0 557 0
99 0 0 0 0 1002 1002
100 0 0 0 0 55 0
101 0 0 0 0 432 432
102 0 0 0 0 176 176
103 0 0 0 0 10 10
104 0 0 0 0 243 243
105 0 0 0 0 0 0
106 0 0 0 0 13 13
107 0 0 0 0 489 0
108 0 0 0 0 147 147
109 0 0 0 0 60 0
110 0 0 0 0 118 118
111 0 0 0 0 295 295
112 0 0 0 0 10 10
113 0 0 0 0 62 62
114 0 0 0 0 0 0
115 0 0 0 0 -5 -5
116 0 0 0 0 0 0
117 0 0 0 0 257 257
118 0 0 0 0 65 65
119 0 0 0 0 316 316
120 0 0 0 0 208 208
121 0 0 0 0 10 10
122 0 0 0 0 29 29
123 0 0 0 0 146 146
124 0 0 0 0 10 10
125 0 0 0 0 310 0
126 0 0 0 0 380 380
127 0 0 0 0 70 0
128 0 0 0 0 1003 1003
129 0 0 0 0 151 151
130 0 0 0 0 10 10
131 0 0 0 0 100 100
132 0 0 0 0 0 0
133 0 0 0 0 10 10
134 0 0 0 0 229 0
135 0 0 0 0 556 556
136 0 0 0 0 75 0
137 0 0 0 0 89 89
138 0 0 0 0 296 296
139 0 0 0 0 10 10
140 0 0 0 0 170 170
141 0 0 0 0 184 184
142 0 0 0 0 21 21
143 0 0 0 0 186 0
144 0 0 0 0 566 566
145 0 0 0 0 80 0
146 0 0 0 0 953 953
147 0 0 0 0 112 112
148 0 0 0 0 10 10
149 0 0 0 0 251 251
150 0 0 0 0 550 550
DEPOT_SECTION
1 
-1
EOF
